skills = 32;
skillToRobot = array1d(1..32, [1, 1, 1, 2, 2, 2, 3, 3, 3, 4, 4, 4, 5, 5, 5, 6, 6, 6, 7, 7, 7, 8, 8, 9, 10, 11, 11, 11, 11, 13, 14, 15]);
minReach = array1d(1..32, [0, 0, 5, 0, 0, 5, 0, 0, 5, 0, 0, 5, 0, 0, 5, 0, 0, 5, 0, 0, 5, 0, 0, 0, 0, 0, 0, 0, 0, 0, 0, 0]);
maxReach = array1d(1..32, [0, 0, 18, 0, 0, 18, 0, 0, 27, 0, 0, 27, 0, 0, 27, 0, 0, 18, 0, 0, 18, 0, 0, 0, 0, 0, 0, 0, 0, 0, 0, 0]);
transferSkill = array1d(1..32, [true, true, false, true, true, true, true, true, true, true, true, true, true, true, true, true, true, true, true, true, false, true, true, true, true, true, true, true, true, true, true, true]);
activeSkill = array1d(1..32, [false, false, true, false, false, true, false, false, true, false, false, true, false, false, true, false, false, true, false, false, true, false, false, false, false, false, false, false, false, true, true, true]);
internalSuccessorSkills = array1d(1..32, [{}, {}, {}, {6}, {6}, {4, 5}, {9}, {9}, {8, 7}, {12}, {12}, {10, 11}, {15}, {15}, {13, 14}, {18}, {18}, {16, 17}, {}, {}, {}, {}, {}, {}, {}, {}, {}, {}, {}, {}, {}, {}]);
